cpu-bind=MASK - n2lcn0125, task  0  0 [3873276]: mask |--------|--------||--------|--------||--------|--------||--------|--------||||--------|--------||--------|--------||--------|BBBB----||--------|--------|  set
started at Fri Mar 17 08:50:50 CET 2023
Timecheck 10001007.596657466
Set parameter TokenServer to value "license3.uni-paderborn.de"
Warning: Gurobi version mismatch between Python 10.0.1 and C library 10.0.0
Timecheck 10001007.612408968
Timecheck 10001007.61262911
Timecheck 10001007.61265975
Timecheck 10001007.61268017


####################################################################################################
Solve scenario sce_5_26_1 with free vessel operation using the arc flow model
Vessels cannot omit ports, Demands cannot be rejected
####################################################################################################
Data preprocessing, load /upb/departments/pc2/groups/hpc-prf-winf4/dwetzel/SILSRP/inst_final/sce_5_26_1
and create additional sets and parameters
	|- Read vessel information, number of vessels:	10
	|- Read node information, number of nodes:		554
	|- Read arc information
		|- Number of sailing arcs:			3104
		|- Number of transshipment arcs:	977
	|- Read container information
		|- Number of demands:		1239
		|- Number of empties (+/-):	227/251
	|- Create additional sets and parameters

Data preprocessing took 	00:00:00.716
####################################################################################################
Create linear model
Set parameter Threads to value 4
	|- Create variables, took	00:00:01.166
	|- Create objective, took	00:00:00.932
	|- Create constraints, took	00:00:03.320
	|- Load heuristic start

Creating model took	00:00:05.435
####################################################################################################
Fix start solution

Set parameter TimeLimit to value 8.2648095690513030e+04
Gurobi Optimizer version 10.0.0 build v10.0.0rc2 (linux64)

CPU model: AMD EPYC 7763 64-Core Processor, instruction set [SSE2|AVX|AVX2]
Thread count: 128 physical cores, 128 logical processors, using up to 4 threads

Optimize a model with 62959 rows, 290244 columns and 992808 nonzeros
Model fingerprint: 0xe646cb90
Variable types: 257422 continuous, 32822 integer (32822 binary)
Coefficient statistics:
  Matrix range     [1e+00, 2e+06]
  Objective range  [1e+00, 1e+00]
  Bounds range     [1e+00, 3e+02]
  RHS range        [1e+00, 9e+08]
Presolve removed 54963 rows and 268593 columns
Presolve time: 0.76s
Presolved: 7996 rows, 21651 columns, 61616 nonzeros
Variable types: 20550 continuous, 1101 integer (1099 binary)

Root relaxation: objective 3.728941e+07, 2150 iterations, 0.03 seconds (0.01 work units)

    Nodes    |    Current Node    |     Objective Bounds      |     Work
 Expl Unexpl |  Obj  Depth IntInf | Incumbent    BestBd   Gap | It/Node Time

     0     0 3.7289e+07    0    2          - 3.7289e+07      -     -    0s
H    0     0                    3.834674e+07 3.7289e+07  2.76%     -    0s
H    0     0                    3.792430e+07 3.7289e+07  1.67%     -    1s
     0     0 3.7826e+07    0    2 3.7924e+07 3.7826e+07  0.26%     -    1s
     0     0 3.7826e+07    0    2 3.7924e+07 3.7826e+07  0.26%     -    1s
     0     0 3.7826e+07    0    2 3.7924e+07 3.7826e+07  0.26%     -    1s
     0     0 3.7838e+07    0    2 3.7924e+07 3.7838e+07  0.23%     -    1s
     0     0 3.7838e+07    0    2 3.7924e+07 3.7838e+07  0.23%     -    1s
H    0     0                    3.787622e+07 3.7838e+07  0.10%     -    1s
     0     2 3.7838e+07    0    2 3.7876e+07 3.7838e+07  0.10%     -    1s
*   19     1               9    3.786065e+07 3.7854e+07  0.02%   3.2    1s

Cutting planes:
  Gomory: 2
  Cover: 1
  MIR: 2
  Flow cover: 1

Explored 22 nodes (2265 simplex iterations) in 1.74 seconds (1.25 work units)
Thread count was 4 (of 128 available processors)

Solution count 4: 3.78607e+07 3.78762e+07 3.79243e+07 3.83467e+07 

Optimal solution found (tolerance 1.00e-04)
Best objective 3.786065100000e+07, best bound 3.786065100000e+07, gap 0.0000%

Fixing start solution took	00:00:07.300
####################################################################################################
####################################################################################################
Solve optimization model

Set parameter TimeLimit to value 8.2646321933375672e+04
Gurobi Optimizer version 10.0.0 build v10.0.0rc2 (linux64)

CPU model: AMD EPYC 7763 64-Core Processor, instruction set [SSE2|AVX|AVX2]
Thread count: 128 physical cores, 128 logical processors, using up to 4 threads

Optimize a model with 62406 rows, 290244 columns and 992255 nonzeros
Model fingerprint: 0xda89beb9
Variable types: 257422 continuous, 32822 integer (32822 binary)
Coefficient statistics:
  Matrix range     [1e+00, 2e+06]
  Objective range  [1e+00, 1e+00]
  Bounds range     [1e+00, 3e+02]
  RHS range        [1e+00, 9e+08]

MIP start from previous solve produced solution with objective 3.78607e+07 (0.61s)
Loaded MIP start from previous solve with objective 3.78607e+07

Presolve removed 7777 rows and 15907 columns
Presolve time: 3.80s
Presolved: 54629 rows, 274337 columns, 802571 nonzeros
Variable types: 244853 continuous, 29484 integer (29484 binary)
Deterministic concurrent LP optimizer: primal simplex, dual simplex, and barrier
Showing barrier log only...

Root barrier log...

Ordering time: 3.35s

Barrier statistics:
 AA' NZ     : 7.407e+05
 Factor NZ  : 1.221e+07 (roughly 230 MB of memory)
 Factor Ops : 8.132e+09 (less than 1 second per iteration)
 Threads    : 2

                  Objective                Residual
Iter       Primal          Dual         Primal    Dual     Compl     Time
   0   2.60851481e+16 -2.79128321e+16  2.98e+10 5.52e+04  2.23e+14     9s
   1   6.32905328e+15 -6.71927747e+15  6.49e+09 1.06e+05  4.96e+13     9s
   2   5.88103057e+14 -1.40446989e+15  6.00e+08 9.71e+03  4.60e+12    10s
   3   6.26062262e+13 -4.74967919e+14  6.36e+07 6.29e-09  4.93e+11    10s
   4   1.46806172e+13 -1.09302888e+14  1.49e+07 9.55e-09  1.16e+11    11s
   5   1.32448527e+12 -1.88850667e+13  1.33e+06 7.68e-09  1.05e+10    11s
   6   2.75902436e+11 -7.03997380e+12  2.77e+05 1.33e-08  2.23e+09    11s
   7   3.60907830e+10 -3.57476024e+12  3.60e+04 1.09e-08  2.97e+08    12s
   8   5.68834166e+09 -2.38870584e+12  5.61e+03 8.38e-09  4.94e+07    12s
   9   1.69713069e+09 -1.62871064e+12  1.59e+03 1.02e-08  1.49e+07    12s
  10   6.29597972e+08 -1.06962033e+12  4.89e+02 1.02e-08  5.16e+06    13s
  11   3.31523629e+08 -6.50696415e+11  1.82e+02 8.47e-09  2.20e+06    13s
  12   2.28514464e+08 -2.89136379e+11  8.07e+01 2.89e-08  8.97e+05    13s
  13   1.65916353e+08 -1.45000694e+11  2.71e+01 1.86e-08  3.77e+05    14s
  14   1.51507992e+08 -7.82160008e+10  1.52e+01 2.79e-08  2.00e+05    14s
  15   1.45104504e+08 -3.61658623e+10  7.58e+00 1.58e-07  9.17e+04    14s
  16   1.31367035e+08 -1.49277218e+10  3.67e+00 7.82e-08  3.78e+04    15s
  17   1.13286700e+08 -8.06321916e+09  2.11e+00 4.76e-08  2.03e+04    15s
  18   9.78726175e+07 -6.65132226e+09  1.37e+00 4.66e-08  1.57e+04    15s
  19   8.56756787e+07 -4.06393330e+09  9.54e-01 1.23e-07  9.81e+03    16s
  20   7.54699917e+07 -2.09164883e+09  7.09e-01 1.05e-07  5.56e+03    16s
  21   5.84576491e+07 -3.98460700e+08  8.75e-02 7.04e-08  1.03e+03    16s
  22   5.08889631e+07 -1.38978919e+08  2.31e-02 9.95e-08  3.99e+02    17s
  23   4.61545929e+07 -7.88551693e+07  1.21e-02 7.07e-08  2.56e+02    17s
  24   4.46714030e+07 -4.14178640e+07  9.91e-03 8.43e-08  1.80e+02    17s
  25   4.22712380e+07 -1.65305102e+07  6.61e-03 8.07e-08  1.23e+02    18s
  26   3.87763820e+07  5.08759022e+06  3.54e-03 1.79e-07  7.02e+01    18s
  27   3.52854575e+07  1.40356688e+07  1.45e-03 1.33e-07  4.24e+01    19s
  28   3.32030520e+07  2.04560371e+07  7.16e-04 1.11e-07  2.51e+01    19s
  29   3.20019755e+07  2.32417341e+07  3.86e-04 2.87e-07  1.70e+01    19s
  30   3.15151965e+07  2.48311988e+07  2.81e-04 1.42e-07  1.29e+01    20s
  31   3.11162691e+07  2.65272739e+07  2.04e-04 2.46e-07  8.94e+00    20s
  32   3.05865900e+07  2.73858687e+07  1.11e-04 2.07e-07  6.15e+00    20s
  33   3.03135973e+07  2.82611356e+07  6.81e-05 5.64e-07  3.94e+00    21s
  34   3.01064374e+07  2.87754914e+07  3.85e-05 5.88e-07  2.54e+00    21s
  35   2.99474471e+07  2.92274489e+07  1.79e-05 2.53e-07  1.37e+00    21s
  36   2.98848479e+07  2.93740778e+07  1.04e-05 1.88e-07  9.65e-01    22s
  37   2.98508908e+07  2.94784732e+07  6.57e-06 2.04e-07  7.03e-01    22s
  38   2.98221060e+07  2.96264647e+07  3.69e-06 1.19e-07  3.72e-01    22s
  39   2.98044396e+07  2.97047339e+07  1.71e-06 2.88e-07  1.89e-01    23s
  40   2.98000014e+07  2.97205300e+07  1.33e-06 3.85e-07  1.50e-01    23s
  41   2.97924923e+07  2.97706245e+07  2.71e-06 2.67e-07  4.23e-02    24s
  42   2.97884129e+07  2.97815983e+07  8.62e-06 1.23e-07  1.28e-02    24s
  43   2.97880445e+07  2.97864404e+07  2.51e-06 2.83e-07  3.06e-03    24s
  44   2.97879221e+07  2.97872836e+07  7.43e-07 3.13e-07  1.22e-03    25s
  45   2.97878608e+07  2.97877486e+07  1.63e-07 1.75e-07  2.14e-04    25s
  46   2.97878503e+07  2.97878485e+07  3.85e-09 4.70e-07  3.62e-06    25s
  47   2.97878498e+07  2.97878498e+07  4.28e-09 7.29e-06  1.92e-08    26s
  48   2.97878498e+07  2.97878498e+07  1.33e-09 1.06e-03  5.84e-09    26s

Barrier solved model in 48 iterations and 26.10 seconds (26.32 work units)
Optimal objective 2.97878498e+07


Root crossover log...

   45264 DPushes remaining with DInf 2.4884939e-06                26s
       0 DPushes remaining with DInf 1.3875556e-03                27s

    3316 PPushes remaining with PInf 0.0000000e+00                27s
       0 PPushes remaining with PInf 0.0000000e+00                28s

  Push phase complete: Pinf 0.0000000e+00, Dinf 1.9532223e-05     28s


Root simplex log...

Iteration    Objective       Primal Inf.    Dual Inf.      Time
   47461    2.9787850e+07   0.000000e+00   0.000000e+00     28s
Concurrent spin time: 7.13s (can be avoided by choosing Method=3)

Solved with barrier
   47461    2.9787850e+07   0.000000e+00   0.000000e+00     35s

Root relaxation: objective 2.978785e+07, 47461 iterations, 30.33 seconds (24.35 work units)
Total elapsed time = 35.45s

    Nodes    |    Current Node    |     Objective Bounds      |     Work
 Expl Unexpl |  Obj  Depth IntInf | Incumbent    BestBd   Gap | It/Node Time

     0     0 2.9788e+07    0 3979 3.7861e+07 2.9788e+07  21.3%     -   36s
     0     0 2.9788e+07    0 3915 3.7861e+07 2.9788e+07  21.3%     -   42s
     0     0 3.0605e+07    0 3410 3.7861e+07 3.0605e+07  19.2%     - 2047s
     0     0 3.0605e+07    0 3611 3.7861e+07 3.0605e+07  19.2%     - 2326s
     0     0 3.0647e+07    0 3559 3.7861e+07 3.0647e+07  19.1%     - 4846s
     0     0 3.0647e+07    0 3597 3.7861e+07 3.0647e+07  19.1%     - 5188s
     0     0 3.0660e+07    0 3541 3.7861e+07 3.0660e+07  19.0%     - 5974s
     0     0 3.0660e+07    0 3599 3.7861e+07 3.0660e+07  19.0%     - 6251s
     0     0 3.0661e+07    0 3628 3.7861e+07 3.0661e+07  19.0%     - 6639s
     0     0 3.0661e+07    0 3573 3.7861e+07 3.0661e+07  19.0%     - 6902s
     0     0 3.0661e+07    0 3658 3.7861e+07 3.0661e+07  19.0%     - 7503s
     0     0 3.0661e+07    0 3612 3.7861e+07 3.0661e+07  19.0%     - 7771s
     0     0 3.0661e+07    0 3671 3.7861e+07 3.0661e+07  19.0%     - 8131s
     0     0 3.0661e+07    0 3704 3.7861e+07 3.0661e+07  19.0%     - 8254s
     0     0 3.0934e+07    0 3731 3.7861e+07 3.0934e+07  18.3%     - 11051s
     0     0 3.0934e+07    0 3725 3.7861e+07 3.0934e+07  18.3%     - 12416s
     0     0 3.1075e+07    0 3820 3.7861e+07 3.1075e+07  17.9%     - 14062s
     0     0 3.1075e+07    0 3886 3.7861e+07 3.1075e+07  17.9%     - 14315s
     0     0 3.1104e+07    0 3904 3.7861e+07 3.1104e+07  17.8%     - 15372s
     0     0 3.1104e+07    0 3879 3.7861e+07 3.1104e+07  17.8%     - 15563s
     0     0 3.1113e+07    0 3826 3.7861e+07 3.1113e+07  17.8%     - 16091s
     0     0 3.1113e+07    0 3885 3.7861e+07 3.1113e+07  17.8%     - 16160s
     0     0 3.1114e+07    0 3872 3.7861e+07 3.1114e+07  17.8%     - 16665s
     0     0 3.1114e+07    0 3905 3.7861e+07 3.1114e+07  17.8%     - 16827s
     0     0 3.1114e+07    0 3818 3.7861e+07 3.1114e+07  17.8%     - 17257s
     0     0 3.1114e+07    0 3840 3.7861e+07 3.1114e+07  17.8%     - 17433s
     0     0 3.1115e+07    0 3859 3.7861e+07 3.1115e+07  17.8%     - 17729s
     0     0 3.1115e+07    0 3856 3.7861e+07 3.1115e+07  17.8%     - 17984s
     0     0 3.1242e+07    0 3881 3.7861e+07 3.1242e+07  17.5%     - 20000s
     0     0 3.1242e+07    0 3866 3.7861e+07 3.1242e+07  17.5%     - 20226s
     0     0 3.1296e+07    0 4019 3.7861e+07 3.1296e+07  17.3%     - 22670s
     0     0 3.1296e+07    0 4014 3.7861e+07 3.1296e+07  17.3%     - 22804s
     0     0 3.1317e+07    0 3986 3.7861e+07 3.1317e+07  17.3%     - 23805s
     0     0 3.1317e+07    0 4005 3.7861e+07 3.1317e+07  17.3%     - 24040s
     0     0 3.1324e+07    0 3994 3.7861e+07 3.1324e+07  17.3%     - 24907s
     0     0 3.1324e+07    0 4012 3.7861e+07 3.1324e+07  17.3%     - 25215s
     0     0 3.1328e+07    0 3992 3.7861e+07 3.1328e+07  17.3%     - 27136s
     0     0 3.1328e+07    0 3972 3.7861e+07 3.1328e+07  17.3%     - 27139s
     0     0 3.1330e+07    0 4021 3.7861e+07 3.1330e+07  17.2%     - 27830s
     0     0 3.1330e+07    0 4020 3.7861e+07 3.1330e+07  17.2%     - 27962s
     0     0 3.1332e+07    0 3982 3.7861e+07 3.1332e+07  17.2%     - 28428s
     0     0 3.1332e+07    0 4073 3.7861e+07 3.1332e+07  17.2%     - 28496s
     0     0 3.1332e+07    0 4088 3.7861e+07 3.1332e+07  17.2%     - 29070s
     0     0 3.1332e+07    0 4128 3.7861e+07 3.1332e+07  17.2%     - 29195s
     0     0 3.1332e+07    0 4057 3.7861e+07 3.1332e+07  17.2%     - 29586s
     0     0 3.1332e+07    0 3934 3.7861e+07 3.1332e+07  17.2%     - 30114s
     0     0 3.1408e+07    0 3976 3.7861e+07 3.1408e+07  17.0%     - 31770s
     0     0 3.1408e+07    0 3970 3.7861e+07 3.1408e+07  17.0%     - 32053s
     0     0 3.1445e+07    0 3964 3.7861e+07 3.1445e+07  16.9%     - 35085s
     0     0 3.1445e+07    0 4035 3.7861e+07 3.1445e+07  16.9%     - 35408s
     0     0 3.1459e+07    0 3944 3.7861e+07 3.1459e+07  16.9%     - 37030s
     0     0 3.1459e+07    0 4065 3.7861e+07 3.1459e+07  16.9%     - 37236s
     0     0 3.1466e+07    0 4070 3.7861e+07 3.1466e+07  16.9%     - 38146s
     0     0 3.1466e+07    0 4074 3.7861e+07 3.1466e+07  16.9%     - 38298s
     0     0 3.1470e+07    0 4067 3.7861e+07 3.1470e+07  16.9%     - 39277s
     0     0 3.1470e+07    0 4135 3.7861e+07 3.1470e+07  16.9%     - 39403s
     0     0 3.1472e+07    0 4089 3.7861e+07 3.1472e+07  16.9%     - 40211s
     0     0 3.1472e+07    0 4036 3.7861e+07 3.1472e+07  16.9%     - 40484s
     0     0 3.1473e+07    0 4130 3.7861e+07 3.1473e+07  16.9%     - 41599s
     0     0 3.1473e+07    0 4090 3.7861e+07 3.1473e+07  16.9%     - 41901s
     0     0 3.1474e+07    0 4022 3.7861e+07 3.1474e+07  16.9%     - 43853s
     0     0 3.1474e+07    0 4138 3.7861e+07 3.1474e+07  16.9%     - 44454s
     0     0 3.1474e+07    0 4096 3.7861e+07 3.1474e+07  16.9%     - 44771s
     0     0 3.1546e+07    0 4133 3.7861e+07 3.1546e+07  16.7%     - 47185s
     0     0 3.1546e+07    0 4000 3.7861e+07 3.1546e+07  16.7%     - 47550s
     0     0 3.1573e+07    0 4083 3.7861e+07 3.1573e+07  16.6%     - 50719s
     0     0 3.1573e+07    0 4093 3.7861e+07 3.1573e+07  16.6%     - 50891s
     0     0 3.1585e+07    0 4071 3.7861e+07 3.1585e+07  16.6%     - 52545s
     0     0 3.1585e+07    0 4025 3.7861e+07 3.1585e+07  16.6%     - 52974s
     0     0 3.1591e+07    0 4115 3.7861e+07 3.1591e+07  16.6%     - 54085s
     0     0 3.1591e+07    0 4082 3.7861e+07 3.1591e+07  16.6%     - 54308s
     0     0 3.1595e+07    0 4088 3.7861e+07 3.1595e+07  16.5%     - 55710s
     0     0 3.1595e+07    0 4061 3.7861e+07 3.1595e+07  16.5%     - 55891s
     0     0 3.1598e+07    0 3993 3.7861e+07 3.1598e+07  16.5%     - 56635s
     0     0 3.1598e+07    0 4096 3.7861e+07 3.1598e+07  16.5%     - 56860s
     0     0 3.1598e+07    0 4039 3.7861e+07 3.1598e+07  16.5%     - 57858s
     0     0 3.1598e+07    0 4012 3.7861e+07 3.1598e+07  16.5%     - 58093s
     0     0 3.1599e+07    0 4113 3.7861e+07 3.1599e+07  16.5%     - 58715s
     0     0 3.1599e+07    0 4063 3.7861e+07 3.1599e+07  16.5%     - 59022s
     0     0 3.1599e+07    0 4092 3.7861e+07 3.1599e+07  16.5%     - 59795s
     0     0 3.1599e+07    0 4007 3.7861e+07 3.1599e+07  16.5%     - 60112s
     0     0 3.1671e+07    0 4027 3.7861e+07 3.1671e+07  16.3%     - 66301s
     0     0 3.1671e+07    0 4086 3.7861e+07 3.1671e+07  16.3%     - 66509s
     0     0 3.1689e+07    0 3897 3.7861e+07 3.1689e+07  16.3%     - 75107s
     0     0 3.1689e+07    0 4146 3.7861e+07 3.1689e+07  16.3%     - 75324s
     0     0 3.1700e+07    0 4112 3.7861e+07 3.1700e+07  16.3%     - 76578s
     0     0 3.1700e+07    0 4195 3.7861e+07 3.1700e+07  16.3%     - 76769s
     0     0 3.1708e+07    0 4132 3.7861e+07 3.1708e+07  16.3%     - 78142s
     0     0 3.1708e+07    0 4173 3.7861e+07 3.1708e+07  16.3%     - 78409s
     0     0 3.1711e+07    0 4125 3.7861e+07 3.1711e+07  16.2%     - 80110s
     0     0 3.1711e+07    0 4160 3.7861e+07 3.1711e+07  16.2%     - 80347s
     0     0 3.1713e+07    0 4135 3.7861e+07 3.1713e+07  16.2%     - 81034s
     0     0 3.1713e+07    0 4090 3.7861e+07 3.1713e+07  16.2%     - 81246s
     0     0 3.1715e+07    0 4113 3.7861e+07 3.1715e+07  16.2%     - 81722s
     0     0 3.1715e+07    0 4094 3.7861e+07 3.1715e+07  16.2%     - 81998s
     0     0          -    0      3.7861e+07 3.1715e+07  16.2%     - 82646s

Cutting planes:
  Lift-and-project: 5
  Cover: 4
  Implied bound: 922
  Clique: 6
  MIR: 504
  StrongCG: 1
  Flow cover: 2723
  Zero half: 2
  RLT: 804
  Relax-and-lift: 702

Explored 1 nodes (6581591 simplex iterations) in 82646.35 seconds (69523.56 work units)
Thread count was 4 (of 128 available processors)

Solution count 1: 3.78607e+07 

Time limit reached
Best objective 3.786065100000e+07, best bound 3.171461946497e+07, gap 16.2333%

Solving took 	22:57:26.375
####################################################################################################
####################################################################################################
####################################################################################################
Reached timelimit, but could find a feasible solution
####################################################################################################
Description                          Value
----------------------------  ------------
Objective (min)               37,860,651.0
Cost sailing                  14,105,633.0
Cost port visits              22,131,017.0
Cost transshipment (demands)   1,759,183.0
Cost transshipment (empties)     358,301.0
Penalty delayed demands        1,917,097.0
Revenue Empties                4,298,980.0
Penalty rejected demands       1,888,400.0
Rejected demands (%)                  0.31
Omitted ports (%)                      0.0
Gap (%)                              16.23
####################################################################################################
Export solution
####################################################################################################
Overall time 	22:57:34.752

real	1377m36.014s
user	1375m37.500s
sys	0m38.122s
finished at Sat Mar 18 07:48:26 CET 2023
